
Log started (V12.8.0.0) Wed Dec 11 13:18:33 2019


Problem 'model0.lp' read.
Read time = 0.01 sec. (0.13 ticks)
Tried aggregator 3 times.
MIP Presolve eliminated 724 rows and 240 columns.
MIP Presolve modified 453 coefficients.
Aggregator did 185 substitutions.
Reduced MIP has 616 rows, 393 columns, and 1783 nonzeros.
Reduced MIP has 257 binaries, 136 generals, 0 SOSs, and 0 indicators.
Presolve time = 0.01 sec. (4.31 ticks)
Found incumbent of value 25.000000 after 0.02 sec. (8.31 ticks)
Probing fixed 2 vars, tightened 14 bounds.
Probing time = 0.00 sec. (0.49 ticks)
Tried aggregator 1 time.
MIP Presolve eliminated 5 rows and 2 columns.
Reduced MIP has 611 rows, 390 columns, and 1676 nonzeros.
Reduced MIP has 255 binaries, 135 generals, 0 SOSs, and 0 indicators.
Presolve time = 0.00 sec. (1.60 ticks)
Probing time = 0.00 sec. (0.44 ticks)
Clique table members: 434.
MIP emphasis: balance optimality and feasibility.
MIP search method: dynamic search.
Parallel mode: deterministic, using up to 4 threads.
Root relaxation solution time = 0.00 sec. (1.24 ticks)

        Nodes                                         Cuts/
   Node  Left     Objective  IInf  Best Integer    Best Bound    ItCnt     Gap

*     0+    0                           25.0000        1.0000            96.00%
      0     0        cutoff             25.0000                     90    0.00%

Root node processing (before b&c):
  Real time             =    0.03 sec. (13.14 ticks)
Parallel b&c, 4 threads:
  Real time             =    0.00 sec. (0.00 ticks)
  Sync time (average)   =    0.00 sec.
  Wait time (average)   =    0.00 sec.
                          ------------
Total (root+branch&cut) =    0.03 sec. (13.14 ticks)

Solution pool: 1 solution saved.

MIP - Integer optimal solution:  Objective =  2.5000000000e+01
Solution time =    0.03 sec.  Iterations = 90  Nodes = 0
Deterministic time = 13.14 ticks  (424.88 ticks/sec)

Input file 'constraints1.txt' successfully opened.

Problem addition successful.
Warning:  No solution found from 1 MIP starts.
Retaining values of one MIP start for possible repair.
Row 'c2' infeasible, all entries at implied bounds.
Presolve time = 0.00 sec. (0.33 ticks)

Root node processing (before b&c):
  Real time             =    0.00 sec. (0.89 ticks)
Parallel b&c, 4 threads:
  Real time             =    0.00 sec. (0.00 ticks)
  Sync time (average)   =    0.00 sec.
  Wait time (average)   =    0.00 sec.
                          ------------
Total (root+branch&cut) =    0.00 sec. (0.89 ticks)


MIP - Integer infeasible.
Current MIP best bound =  0.0000000000e+00 (gap is infinite)
Solution time =    0.00 sec.  Iterations = 0  Nodes = 0
Deterministic time = 0.89 ticks  (269.17 ticks/sec)

